experiment/data/lkh-res/Vrp-Set-X-n256/Vrp-Set-X-n256-lkh/0.lkh1.vrp
NAME : 0
COMMENT : CVRP Instance
TYPE : CVRP
DIMENSION : 256
EDGE_WEIGHT_TYPE : EUC_2D
CAPACITY : 1225
NODE_COORD_SECTION
1	50000	50000
2	87800	60600
3	3500	59300
4	32000	12500
5	18900	24400
6	27400	78400
7	90000	31000
8	74200	64000
9	80000	44800
10	6600	59900
11	82900	58800
12	66000	69800
13	29000	67300
14	66900	61900
15	25200	74200
16	42500	16000
17	29100	11400
18	28900	9000
19	81300	66300
20	84700	52800
21	58900	73800
22	75600	68700
23	77700	54700
24	81000	55400
25	82300	50100
26	500	17900
27	35700	77400
28	3900	41900
29	27700	5900
30	7600	12700
31	22900	6500
32	86800	25600
33	38800	91400
34	30300	35200
35	71300	64000
36	69200	66800
37	33200	77300
38	40400	83300
39	78200	71900
40	23000	68000
41	71100	55900
42	38300	85100
43	36600	4200
44	8000	32200
45	2200	33800
46	44700	10700
47	35700	2400
48	12000	25500
49	15500	25200
50	79300	60500
51	24800	23600
52	27300	16300
53	74100	59600
54	32400	75300
55	19500	63200
56	84800	38000
57	72800	46000
58	29600	6600
59	88500	20300
60	33000	78000
61	20400	17700
62	65900	55300
63	42600	10200
64	30900	75500
65	21500	24200
66	93800	51400
67	2400	54700
68	37300	11000
69	100000	47500
70	86200	59600
71	97400	55100
72	8300	15500
73	81600	43300
74	91700	34500
75	6200	66100
76	98100	72000
77	87400	60200
78	24700	23100
79	24800	94600
80	90800	59000
81	81200	70100
82	95900	40100
83	27000	34700
84	71400	56700
85	79600	52000
86	36700	94700
87	8800	23500
88	3000	23000
89	18900	19900
90	77400	66400
91	73200	57900
92	14600	73000
93	18800	74800
94	95800	53300
95	95400	29600
96	27900	16000
97	95600	60800
98	88200	38900
99	85300	19500
100	73000	64000
101	5600	56200
102	13600	49900
103	81900	42700
104	87300	66300
105	30800	10100
106	25600	66900
107	27200	32000
108	28000	12200
109	80000	66300
110	19300	6500
111	95100	67600
112	33400	98700
113	58300	84300
114	94000	36300
115	52300	79700
116	75300	41500
117	78600	57600
118	6000	62300
119	51200	16600
120	94500	49900
121	92800	31200
122	82300	80200
123	24900	28800
124	26600	77600
125	16600	20400
126	79300	69100
127	90600	59900
128	21700	2000
129	12400	27100
130	88000	57200
131	70800	42800
132	5300	56100
133	38600	71300
134	76400	42300
135	9800	57700
136	7700	60800
137	87500	60700
138	26600	84700
139	86100	67300
140	7900	52500
141	63400	27900
142	65700	66500
143	78400	42400
144	11600	83400
145	88200	57400
146	34900	11300
147	51900	67400
148	56800	69300
149	41200	71500
150	68100	73900
151	71000	60300
152	13200	31700
153	24300	88700
154	32800	13000
155	68200	18400
156	90700	50500
157	2500	51300
158	95200	67200
159	36400	10700
160	74600	33100
161	4700	52400
162	80900	64000
163	95000	58600
164	87300	41400
165	9700	27800
166	77500	60100
167	19400	30900
168	26600	27600
169	73900	36100
170	82500	35700
171	24600	85000
172	26800	16800
173	18100	78200
174	70000	49200
175	69500	69800
176	70800	45400
177	21300	70100
178	14700	7200
179	94000	66100
180	21300	21400
181	93100	58600
182	17500	24300
183	46600	3800
184	3900	52100
185	69700	59400
186	30700	17000
187	7600	55400
188	99100	43400
189	79700	28600
190	8400	34600
191	79400	69500
192	2400	57500
193	18400	36700
194	23100	28500
195	77500	55900
196	98900	42000
197	89700	30900
198	41500	18000
199	20100	29300
200	4200	89100
201	3900	26700
202	36600	20500
203	26500	76500
204	1700	29000
205	72900	84600
206	70700	63200
207	82500	34200
208	27400	80900
209	96100	40100
210	90100	60400
211	68500	72500
212	86000	24400
213	3700	36700
214	20900	18900
215	31900	16700
216	23400	17700
217	22100	69700
218	37900	19000
219	62900	65700
220	74000	48600
221	9400	55200
222	27200	17300
223	88400	62800
224	96700	29700
225	91300	27900
226	19600	31300
227	27600	8400
228	69200	63200
229	82400	34800
230	28400	74300
231	25300	73900
232	87400	30300
233	69500	65700
234	12400	31300
235	70500	45600
236	24800	81900
237	78100	84300
238	86600	54400
239	36400	87000
240	88400	37500
241	68600	59000
242	48200	17700
243	91200	17600
244	28700	79400
245	76400	59200
246	94400	11200
247	35100	26000
248	25400	61600
249	79000	28100
250	35200	32000
251	65300	22400
252	82700	59300
253	9800	90600
254	92000	32100
255	9800	55500
256	1800	53400
DEMAND_SECTION
1	0
2	83
3	68
4	78
5	76
6	79
7	76
8	78
9	61
10	78
11	79
12	86
13	53
14	66
15	81
16	87
17	88
18	66
19	84
20	86
21	89
22	84
23	84
24	88
25	83
26	66
27	53
28	88
29	74
30	81
31	61
32	76
33	83
34	92
35	76
36	54
37	99
38	64
39	67
40	62
41	87
42	72
43	80
44	72
45	74
46	72
47	62
48	92
49	77
50	87
51	62
52	81
53	60
54	51
55	84
56	77
57	96
58	79
59	58
60	94
61	91
62	79
63	74
64	66
65	73
66	91
67	73
68	76
69	95
70	89
71	54
72	72
73	95
74	83
75	100
76	68
77	75
78	99
79	99
80	95
81	86
82	58
83	100
84	63
85	82
86	81
87	61
88	98
89	80
90	92
91	76
92	76
93	89
94	94
95	100
96	83
97	96
98	52
99	98
100	77
101	67
102	98
103	50
104	67
105	61
106	78
107	75
108	58
109	58
110	88
111	53
112	52
113	93
114	51
115	84
116	65
117	55
118	68
119	80
120	56
121	61
122	75
123	94
124	68
125	71
126	70
127	50
128	84
129	79
130	96
131	89
132	89
133	67
134	86
135	70
136	54
137	64
138	79
139	96
140	74
141	77
142	88
143	93
144	73
145	72
146	87
147	55
148	71
149	82
150	56
151	53
152	61
153	67
154	99
155	52
156	53
157	88
158	54
159	93
160	77
161	100
162	91
163	87
164	96
165	96
166	100
167	77
168	91
169	79
170	56
171	50
172	99
173	81
174	93
175	78
176	64
177	51
178	84
179	51
180	62
181	64
182	94
183	97
184	70
185	73
186	84
187	90
188	63
189	92
190	92
191	88
192	69
193	83
194	58
195	80
196	80
197	55
198	83
199	85
200	86
201	83
202	79
203	80
204	65
205	72
206	99
207	75
208	85
209	58
210	64
211	63
212	72
213	52
214	73
215	74
216	91
217	55
218	50
219	95
220	82
221	83
222	76
223	52
224	69
225	56
226	68
227	56
228	74
229	98
230	83
231	59
232	98
233	51
234	69
235	71
236	55
237	51
238	100
239	98
240	92
241	67
242	98
243	78
244	84
245	99
246	92
247	99
248	81
249	92
250	69
251	57
252	91
253	65
254	54
255	99
256	84
DEPOT_SECTION
1
-1
EOF
