experiment/data/lkh-res/Vrp-Set-X-n256/Vrp-Set-X-n256-lkh/0.lkh1.tour
NAME : 0.1898891.tour
COMMENT : Length = 1898891
COMMENT : Found by LKH-3 [Keld Helsgaun] Tue Apr  9 04:57:09 2024
TYPE : TOUR
DIMENSION : 271
TOUR_SECTION
1
154
4
105
227
29
31
128
110
178
30
72
26
88
201
204
45
261
102
140
161
28
213
190
44
165
87
48
129
234
152
193
83
264
220
85
20
238
66
94
71
163
181
97
179
158
111
76
104
139
259
248
106
40
217
177
231
15
203
124
6
230
64
54
37
60
27
149
270
118
75
92
93
173
144
200
253
79
153
171
138
236
208
244
133
268
13
55
136
10
3
192
67
256
157
184
132
101
187
221
255
135
260
107
226
167
199
5
182
49
125
89
61
214
180
65
194
123
250
263
235
176
57
9
73
103
164
98
240
56
207
170
143
134
116
131
267
169
160
249
189
212
32
225
95
224
246
243
59
99
155
251
141
269
34
168
51
78
216
172
222
52
96
108
186
215
218
202
247
271
62
241
185
151
8
100
35
206
228
233
175
211
150
12
21
148
147
257
38
42
239
112
86
33
115
113
205
237
122
39
22
36
142
219
258
174
25
156
120
69
188
196
209
82
114
74
254
121
7
197
232
229
266
242
119
46
63
183
43
47
58
18
17
146
159
68
16
198
262
14
90
126
191
81
19
109
162
50
166
245
53
91
84
41
265
23
24
130
145
80
127
210
223
2
137
77
70
11
252
117
195
-1
EOF
